Maximize
profit: -8 X_0_0 -8 X_1_0 -8 X_0_1 -8 X_1_1 -8 X_0_2 -8 X_1_2 -8 X_0_3 -8 X_1_3 -8 X_0_4 -8 X_1_4 -8 X_0_5 -8 X_1_5 -8 X_0_6 -8 X_1_6 -8 X_0_7 -8 X_1_7 -8 X_0_8 -8 X_1_8 -8 X_0_9 -8 X_1_9 -8 X_0_10 -8 X_1_10 -8 X_0_11 -8 X_1_11 -11 Y_0_0 -11 Y_1_0 -11 Y_0_1 -11 Y_1_1 -11 Y_0_2 -11 Y_1_2 -11 Y_0_3 -11 Y_1_3 -11 Y_0_4 -11 Y_1_4 -11 Y_0_5 -11 Y_1_5 -11 Y_0_6 -11 Y_1_6 -11 Y_0_7 -11 Y_1_7 -11 Y_0_8 -11 Y_1_8 -11 Y_0_9 -11 Y_1_9 -11 Y_0_10 -11 Y_1_10 -11 Y_0_11 -11 Y_1_11 -11 Y_0_12 -11 Y_1_12 +15 X_0_0 +15 X_1_0 +15 X_0_1 +15 X_1_1 +15 X_0_2 +15 X_1_2 +15 X_0_3 +15 X_1_3 +15 X_0_4 +15 X_1_4 +15 X_0_5 +15 X_1_5 +15 X_0_6 +15 X_1_6 +15 X_0_7 +15 X_1_7 +15 X_0_8 +15 X_1_8 +15 X_0_9 +15 X_1_9 +15 X_0_10 +15 X_1_10 +15 X_0_11 +15 X_1_11  +32150000 cst

Subject to
stock_0_0: Y_0_1 - Y_0_0 - X_0_0 =  -60000
stock_1_0: Y_1_1 - Y_1_0 - X_1_0 =  -50000
stock_0_1: Y_0_2 - Y_0_1 - X_0_1 =  -60000
stock_1_1: Y_1_2 - Y_1_1 - X_1_1 =  -50000
stock_0_2: Y_0_3 - Y_0_2 - X_0_2 =  -60000
stock_1_2: Y_1_3 - Y_1_2 - X_1_2 =  -70000
stock_0_3: Y_0_4 - Y_0_3 - X_0_3 =  -50000
stock_1_3: Y_1_4 - Y_1_3 - X_1_3 =  -50000
stock_0_4: Y_0_5 - Y_0_4 - X_0_4 =  -65000
stock_1_4: Y_1_5 - Y_1_4 - X_1_4 =  -40000
stock_0_5: Y_0_6 - Y_0_5 - X_0_5 =  -45000
stock_1_5: Y_1_6 - Y_1_5 - X_1_5 =  -50000
stock_0_6: Y_0_7 - Y_0_6 - X_0_6 =  -60000
stock_1_6: Y_1_7 - Y_1_6 - X_1_6 =  -50000
stock_0_7: Y_0_8 - Y_0_7 - X_0_7 =  -60000
stock_1_7: Y_1_8 - Y_1_7 - X_1_7 =  -60000
stock_0_8: Y_0_9 - Y_0_8 - X_0_8 =  -55000
stock_1_8: Y_1_9 - Y_1_8 - X_1_8 =  -50000
stock_0_9: Y_0_10 - Y_0_9 - X_0_9 =  -60000
stock_1_9: Y_1_10 - Y_1_9 - X_1_9 =  -35000
stock_0_10: Y_0_11 - Y_0_10 - X_0_10 =  -60000
stock_1_10: Y_1_11 - Y_1_10 - X_1_10 =  -45000
stock_0_11: Y_0_12 - Y_0_11 - X_0_11 =  -50000
stock_1_11: Y_1_12 - Y_1_11 - X_1_11 =  -60000

Capa_0: X_0_0 + X_1_0 <= 140000
Capa_1: X_0_1 + X_1_1 <= 140000
Capa_2: X_0_2 + X_1_2 <= 140000
Capa_3: X_0_3 + X_1_3 <= 140000
Capa_4: X_0_4 + X_1_4 <= 140000
Capa_5: X_0_5 + X_1_5 <= 140000
Capa_6: X_0_6 + X_1_6 <= 140000
Capa_7: X_0_7 + X_1_7 <= 140000
Capa_8: X_0_8 + X_1_8 <= 140000
Capa_9: X_0_9 + X_1_9 <= 140000
Capa_10: X_0_10 + X_1_10 <= 140000
Capa_11: X_0_11 + X_1_11 <= 140000

Bounds
cst = 1
Y_0_0 = 0
Y_1_0 = 0
End